c generated by sgen
p cnf 117 244
-2 -3 -4 0
-1 -3 -4 0
-1 -2 -4 0
-1 -2 -3 0
-6 -7 -8 0
-5 -7 -8 0
-5 -6 -8 0
-5 -6 -7 0
-10 -11 -12 0
-9 -11 -12 0
-9 -10 -12 0
-9 -10 -11 0
-14 -15 -16 0
-13 -15 -16 0
-13 -14 -16 0
-13 -14 -15 0
-18 -19 -20 0
-17 -19 -20 0
-17 -18 -20 0
-17 -18 -19 0
-22 -23 -24 0
-21 -23 -24 0
-21 -22 -24 0
-21 -22 -23 0
-26 -27 -28 0
-25 -27 -28 0
-25 -26 -28 0
-25 -26 -27 0
-30 -31 -32 0
-29 -31 -32 0
-29 -30 -32 0
-29 -30 -31 0
-34 -35 -36 0
-33 -35 -36 0
-33 -34 -36 0
-33 -34 -35 0
-38 -39 -40 0
-37 -39 -40 0
-37 -38 -40 0
-37 -38 -39 0
-42 -43 -44 0
-41 -43 -44 0
-41 -42 -44 0
-41 -42 -43 0
-46 -47 -48 0
-45 -47 -48 0
-45 -46 -48 0
-45 -46 -47 0
-50 -51 -52 0
-49 -51 -52 0
-49 -50 -52 0
-49 -50 -51 0
-54 -55 -56 0
-53 -55 -56 0
-53 -54 -56 0
-53 -54 -55 0
-58 -59 -60 0
-57 -59 -60 0
-57 -58 -60 0
-57 -58 -59 0
-62 -63 -64 0
-61 -63 -64 0
-61 -62 -64 0
-61 -62 -63 0
-66 -67 -68 0
-65 -67 -68 0
-65 -66 -68 0
-65 -66 -67 0
-70 -71 -72 0
-69 -71 -72 0
-69 -70 -72 0
-69 -70 -71 0
-74 -75 -76 0
-73 -75 -76 0
-73 -74 -76 0
-73 -74 -75 0
-78 -79 -80 0
-77 -79 -80 0
-77 -78 -80 0
-77 -78 -79 0
-82 -83 -84 0
-81 -83 -84 0
-81 -82 -84 0
-81 -82 -83 0
-86 -87 -88 0
-85 -87 -88 0
-85 -86 -88 0
-85 -86 -87 0
-90 -91 -92 0
-89 -91 -92 0
-89 -90 -92 0
-89 -90 -91 0
-94 -95 -96 0
-93 -95 -96 0
-93 -94 -96 0
-93 -94 -95 0
-98 -99 -100 0
-97 -99 -100 0
-97 -98 -100 0
-97 -98 -99 0
-102 -103 -104 0
-101 -103 -104 0
-101 -102 -104 0
-101 -102 -103 0
-106 -107 -108 0
-105 -107 -108 0
-105 -106 -108 0
-105 -106 -107 0
-110 -111 -112 0
-109 -111 -112 0
-109 -110 -112 0
-109 -110 -111 0
-113 -114 -115 0
-113 -114 -116 0
-113 -114 -117 0
-113 -115 -116 0
-113 -115 -117 0
-113 -116 -117 0
-114 -115 -116 0
-114 -115 -117 0
-114 -116 -117 0
-115 -116 -117 0
25 61 9 0
65 61 9 0
65 25 9 0
65 25 61 0
22 39 83 0
63 39 83 0
63 22 83 0
63 22 39 0
102 23 114 0
4 23 114 0
4 102 114 0
4 102 23 0
43 85 10 0
21 85 10 0
21 43 10 0
21 43 85 0
55 104 49 0
92 104 49 0
92 55 49 0
92 55 104 0
105 101 33 0
12 101 33 0
12 105 33 0
12 105 101 0
2 99 38 0
26 99 38 0
26 2 38 0
26 2 99 0
31 7 46 0
54 7 46 0
54 31 46 0
54 31 7 0
89 67 117 0
44 67 117 0
44 89 117 0
44 89 67 0
90 71 109 0
28 71 109 0
28 90 109 0
28 90 71 0
60 98 45 0
68 98 45 0
68 60 45 0
68 60 98 0
15 81 93 0
1 81 93 0
1 15 93 0
1 15 81 0
80 100 52 0
88 100 52 0
88 80 52 0
88 80 100 0
79 41 69 0
32 41 69 0
32 79 69 0
32 79 41 0
103 57 78 0
62 57 78 0
62 103 78 0
62 103 57 0
30 37 95 0
116 37 95 0
116 30 95 0
116 30 37 0
34 20 47 0
94 20 47 0
94 34 47 0
94 34 20 0
82 112 86 0
66 112 86 0
66 82 86 0
66 82 112 0
19 29 91 0
58 29 91 0
58 19 91 0
58 19 29 0
87 73 59 0
72 73 59 0
72 87 59 0
72 87 73 0
107 51 96 0
111 51 96 0
111 107 96 0
111 107 51 0
110 97 18 0
56 97 18 0
56 110 18 0
56 110 97 0
115 14 48 0
70 14 48 0
70 115 48 0
70 115 14 0
64 13 108 0
53 13 108 0
53 64 108 0
53 64 13 0
75 8 50 0
11 8 50 0
11 75 50 0
11 75 8 0
27 74 113 0
84 74 113 0
84 27 113 0
84 27 74 0
5 17 40 0
106 17 40 0
106 5 40 0
106 5 17 0
36 6 3 0
42 6 3 0
42 36 3 0
42 36 6 0
76 35 24 0
76 35 77 0
76 35 16 0
76 24 77 0
76 24 16 0
76 77 16 0
35 24 77 0
35 24 16 0
35 77 16 0
24 77 16 0
